solution status: optimal solution found
objective value:                                    0
$_9_y                                              14 	(obj:0)
$_9_z                                              15 	(obj:0)
$_5_y                                              11 	(obj:0)
$_5_z                                              20 	(obj:0)
$_3_y                                              12 	(obj:0)
$_3_z                                              20 	(obj:0)
$_4_y                                              12 	(obj:0)
$_4_z                                              19 	(obj:0)
$_7_y                                              13 	(obj:0)
$_7_z                                              12 	(obj:0)
$_10_y                                             18 	(obj:0)
$_10_z                                             16 	(obj:0)
$_14_y                                             14 	(obj:0)
$_14_z                                             11 	(obj:0)
$_2_y                                              12 	(obj:0)
$_2_z                                              21 	(obj:0)
$_16_y                                             14 	(obj:0)
$_16_z                                             13 	(obj:0)
$_15_y                                             13 	(obj:0)
$_15_z                                             11 	(obj:0)
$_6_y                                              11 	(obj:0)
$_6_z                                              21 	(obj:0)
$_8_y                                              14 	(obj:0)
$_8_z                                              10 	(obj:0)
$_11_y                                             18 	(obj:0)
$_11_z                                             12 	(obj:0)
$_39_y                                             15 	(obj:0)
$_39_z                                             13 	(obj:0)
$_12_y                                             15 	(obj:0)
$_12_z                                             12 	(obj:0)
$_13_y                                             14 	(obj:0)
$_13_z                                             12 	(obj:0)
